p cnf 230 775
c t mc
-1 -2 -3 0
1 2 -3 0
-1 2 3 0
1 -2 3 0
5 3 0
5 -4 0
-3 4 -5 0
-5 -6 -7 0
5 6 -7 0
-5 6 7 0
5 -6 7 0
-9 3 0
-9 -8 0
-3 8 9 0
-10 -2 -11 0
10 2 -11 0
-10 2 11 0
10 -2 11 0
12 -6 0
12 10 0
6 -10 -12 0
-13 -11 0
-13 12 0
11 -12 13 0
-14 9 0
-14 13 0
-9 -13 14 0
-7 -14 -15 0
7 14 -15 0
-7 14 15 0
7 -14 15 0
-20 -18 0
-20 -19 0
18 19 20 0
-20 -21 -22 0
20 21 -22 0
-20 21 22 0
20 -21 22 0
23 -17 0
23 22 0
17 -22 -23 0
-24 23 0
-24 -21 0
-23 21 24 0
-25 24 0
-25 -17 0
-24 17 25 0
8 -25 -26 0
-8 25 -26 0
8 25 26 0
-8 -25 26 0
28 -16 0
28 16 0
-27 28 -29 0
27 -28 -29 0
-27 -28 29 0
27 28 29 0
-31 11 0
-31 -30 0
-11 30 31 0
-29 31 -32 0
29 -31 -32 0
-29 -31 32 0
29 31 32 0
-33 26 0
-33 -32 0
-26 32 33 0
16 33 -34 0
-16 -33 -34 0
16 -33 34 0
-16 33 34 0
-15 -34 -35 0
15 34 -35 0
-15 34 35 0
15 -34 35 0
-38 -16 0
-38 -37 0
16 37 38 0
39 38 0
39 -1 0
-38 1 -39 0
17 2 -40 0
-17 -2 -40 0
17 -2 40 0
-17 2 40 0
41 -39 0
41 -40 0
39 40 -41 0
-42 -36 0
-42 -41 0
36 41 42 0
-43 -35 0
-43 -42 0
35 42 43 0
40 -23 -44 0
-40 23 -44 0
40 23 44 0
-40 -23 44 0
45 -24 0
45 9 0
24 -9 -45 0
44 -45 -46 0
-44 45 -46 0
44 45 46 0
-44 -45 46 0
47 46 0
47 10 0
-46 -10 -47 0
48 -26 0
48 -47 0
26 47 -48 0
27 2 -49 0
-27 -2 -49 0
27 -2 49 0
-27 2 49 0
-11 -49 -50 0
11 49 -50 0
-11 49 50 0
11 -49 50 0
-10 36 -51 0
10 -36 -51 0
-10 -36 51 0
10 36 51 0
-52 -50 0
-52 51 0
50 -51 52 0
-53 -48 0
-53 52 0
48 -52 53 0
23 -49 -54 0
-23 49 -54 0
23 49 54 0
-23 -49 54 0
-55 53 0
-55 54 0
-53 -54 55 0
56 14 0
56 21 0
-14 -21 -56 0
-57 -55 0
-57 -56 0
55 56 57 0
-58 30 0
-58 22 0
-30 -22 58 0
-59 -8 -60 0
59 8 -60 0
-59 8 60 0
59 -8 60 0
-61 58 0
-61 -60 0
-58 60 61 0
62 5 -63 0
-62 -5 -63 0
62 -5 63 0
-62 5 63 0
-61 -63 -64 0
61 63 -64 0
-61 63 64 0
61 -63 64 0
57 64 -65 0
-57 -64 -65 0
57 -64 65 0
-57 64 65 0
-66 60 0
-66 26 0
-60 -26 66 0
67 -59 0
67 21 0
59 -21 -67 0
67 48 -68 0
-67 -48 -68 0
67 -48 68 0
-67 48 68 0
-69 -68 0
-69 -26 0
68 26 69 0
-69 -19 -70 0
69 19 -70 0
-69 19 70 0
69 -19 70 0
71 66 0
71 70 0
-66 -70 -71 0
-72 39 0
-72 14 0
-39 -14 72 0
-73 -71 0
-73 72 0
71 -72 73 0
-45 -23 -74 0
45 23 -74 0
-45 23 74 0
45 -23 74 0
75 -73 0
75 -74 0
73 74 -75 0
-40 12 -76 0
40 -12 -76 0
-40 -12 76 0
40 12 76 0
-77 31 0
-77 -4 0
-31 4 77 0
78 -8 0
78 -77 0
8 77 -78 0
-79 78 0
-79 -9 0
-78 9 79 0
76 -79 -80 0
-76 79 -80 0
76 79 80 0
-76 -79 80 0
-81 75 0
-81 80 0
-75 -80 81 0
-82 -13 -83 0
82 13 -83 0
-82 13 83 0
82 -13 83 0
38 -18 -84 0
-38 18 -84 0
38 18 84 0
-38 -18 84 0
-83 84 -85 0
83 -84 -85 0
-83 -84 85 0
83 84 85 0
81 85 -86 0
-81 -85 -86 0
81 -85 86 0
-81 85 86 0
87 47 0
87 -12 0
-47 12 -87 0
88 10 0
88 77 0
-10 -77 -88 0
-89 37 0
-89 -46 0
-37 46 89 0
90 -89 0
90 78 0
89 -78 -90 0
91 -4 0
91 -23 0
4 23 -91 0
-4 82 -92 0
4 -82 -92 0
-4 -82 92 0
4 82 92 0
92 59 -93 0
-92 -59 -93 0
92 -59 93 0
-92 59 93 0
91 93 -94 0
-91 -93 -94 0
91 -93 94 0
-91 93 94 0
-95 -90 0
-95 -94 0
90 94 95 0
88 95 -96 0
-88 -95 -96 0
88 -95 96 0
-88 95 96 0
97 93 0
97 -93 0
98 -32 0
98 -19 0
32 19 -98 0
15 -98 -99 0
-15 98 -99 0
15 98 99 0
-15 -98 99 0
97 -99 -100 0
-97 99 -100 0
97 99 100 0
-97 -99 100 0
22 -68 -101 0
-22 68 -101 0
22 68 101 0
-22 -68 101 0
102 -38 0
102 98 0
38 -98 -102 0
-103 -101 0
-103 102 0
101 -102 103 0
104 100 0
104 -103 0
-100 103 -104 0
96 -104 -105 0
-96 104 -105 0
96 104 105 0
-96 -104 105 0
-106 -87 0
-106 -105 0
87 105 106 0
-107 49 0
-107 -11 0
-49 11 107 0
107 89 -108 0
-107 -89 -108 0
107 -89 108 0
-107 89 108 0
109 -108 0
109 13 0
108 -13 -109 0
-82 109 -110 0
82 -109 -110 0
-82 -109 110 0
82 109 110 0
111 -11 0
111 20 0
11 -20 -111 0
-98 -29 -112 0
98 29 -112 0
-98 29 112 0
98 -29 112 0
111 -112 -113 0
-111 112 -113 0
111 112 113 0
-111 -112 113 0
114 -110 0
114 113 0
110 -113 -114 0
-115 114 0
-115 -112 0
-114 112 115 0
-116 93 0
-116 -37 0
-93 37 116 0
117 -116 0
117 -113 0
116 113 -117 0
-119 -118 0
-119 5 0
118 -5 119 0
120 67 0
120 -62 0
-67 62 -120 0
-121 -9 0
-121 -49 0
9 49 121 0
120 -121 -122 0
-120 121 -122 0
120 121 122 0
-120 -121 122 0
123 -119 0
123 -122 0
119 122 -123 0
124 117 0
124 -123 0
-117 123 -124 0
-125 21 0
-125 1 0
-21 -1 125 0
-126 -17 0
-126 16 0
17 -16 126 0
-127 45 0
-127 126 0
-45 -126 127 0
128 -125 0
128 -127 0
125 127 -128 0
-129 -124 0
-129 128 0
124 -128 129 0
130 -115 0
130 129 0
115 -129 -130 0
-6 40 -131 0
6 -40 -131 0
-6 -40 131 0
6 40 131 0
132 -126 0
132 -131 0
126 131 -132 0
-133 1 0
-133 19 0
-1 -19 133 0
-134 -120 0
-134 133 0
120 -133 134 0
-135 -134 0
-135 69 0
134 -69 135 0
136 -9 0
136 20 0
9 -20 -136 0
136 -31 -137 0
-136 31 -137 0
136 31 137 0
-136 -31 137 0
137 -133 -138 0
-137 133 -138 0
137 133 138 0
-137 -133 138 0
139 -126 0
139 -18 0
126 18 -139 0
-138 139 -140 0
138 -139 -140 0
-138 -139 140 0
138 139 140 0
-120 -92 -141 0
120 92 -141 0
-120 92 141 0
120 -92 141 0
142 140 0
142 -141 0
-140 141 -142 0
-143 135 0
-143 142 0
-135 -142 143 0
-144 132 0
-144 143 0
-132 -143 144 0
-130 144 -145 0
130 -144 -145 0
-130 -144 145 0
130 144 145 0
146 106 0
146 -145 0
-106 145 -146 0
86 -146 -147 0
-86 146 -147 0
86 146 147 0
-86 -146 147 0
-65 147 -148 0
65 -147 -148 0
-65 -147 148 0
65 147 148 0
43 148 -149 0
-43 -148 -149 0
43 -148 149 0
-43 148 149 0
150 -93 0
150 116 0
93 -116 -150 0
151 1 0
151 6 0
-1 -6 -151 0
152 -150 0
152 -151 0
150 151 -152 0
153 1 0
153 -1 0
-154 -11 0
-154 -153 0
11 153 154 0
155 -17 0
155 -18 0
17 18 -155 0
-156 -155 0
-156 15 0
155 -15 156 0
157 -93 0
157 -23 0
93 23 -157 0
93 158 -159 0
-93 -158 -159 0
93 -158 159 0
-93 158 159 0
-160 157 0
-160 -159 0
-157 159 160 0
161 -156 0
161 160 0
156 -160 -161 0
162 -131 0
162 9 0
131 -9 -162 0
-163 -69 0
-163 162 0
69 -162 163 0
-164 161 0
-164 -163 0
-161 163 164 0
-165 -111 0
-165 77 0
111 -77 165 0
-166 83 0
-166 165 0
-83 -165 166 0
5 2 -167 0
-5 -2 -167 0
5 -2 167 0
-5 2 167 0
168 -167 0
168 -76 0
167 76 -168 0
169 -168 0
169 112 0
168 -112 -169 0
170 -166 0
170 169 0
166 -169 -170 0
-164 -170 -171 0
164 170 -171 0
-164 170 171 0
164 -170 171 0
-172 18 0
-172 -4 0
-18 4 172 0
-173 -20 0
-173 14 0
20 -14 173 0
-172 -173 -174 0
172 173 -174 0
-172 173 174 0
172 -173 174 0
-175 171 0
-175 174 0
-171 -174 175 0
-176 -154 0
-176 -175 0
154 175 176 0
177 -152 0
177 176 0
152 -176 -177 0
178 -83 0
178 78 0
83 -78 -178 0
-179 -58 0
-179 -10 0
58 10 179 0
24 36 -180 0
-24 -36 -180 0
24 -36 180 0
-24 36 180 0
181 180 0
181 7 0
-180 -7 -181 0
-181 -30 -182 0
181 30 -182 0
-181 30 182 0
181 -30 182 0
183 179 0
183 -182 0
-179 182 -183 0
178 183 -184 0
-178 -183 -184 0
178 -183 184 0
-178 183 184 0
-185 177 0
-185 -184 0
-177 184 185 0
-186 13 0
-186 14 0
-13 -14 186 0
187 18 0
187 -51 0
-18 51 -187 0
79 -98 -188 0
-79 98 -188 0
79 98 188 0
-79 -98 188 0
-189 187 0
-189 188 0
-187 -188 189 0
190 -91 0
190 29 0
91 -29 -190 0
-191 -189 0
-191 190 0
189 -190 191 0
-192 -186 0
-192 191 0
186 -191 192 0
34 -67 -193 0
-34 67 -193 0
34 67 193 0
-34 -67 193 0
194 91 0
194 -136 0
-91 136 -194 0
-26 -194 -195 0
26 194 -195 0
-26 194 195 0
26 -194 195 0
196 193 0
196 195 0
-193 -195 -196 0
192 -196 -197 0
-192 196 -197 0
192 196 197 0
-192 -196 197 0
-46 4 -198 0
46 -4 -198 0
-46 -4 198 0
46 4 198 0
199 -3 0
199 -162 0
3 162 -199 0
200 -181 0
200 199 0
181 -199 -200 0
-201 -200 0
-201 5 0
200 -5 201 0
202 -12 0
202 167 0
12 -167 -202 0
-203 89 0
-203 -13 0
-89 13 203 0
204 -202 0
204 -203 0
202 203 -204 0
-201 204 -205 0
201 -204 -205 0
-201 -204 205 0
201 204 205 0
206 -121 0
206 -127 0
121 127 -206 0
205 206 -207 0
-205 -206 -207 0
205 -206 207 0
-205 206 207 0
23 -181 -208 0
-23 181 -208 0
23 181 208 0
-23 -181 208 0
209 -208 0
209 107 0
208 -107 -209 0
-210 207 0
-210 209 0
-207 -209 210 0
211 -198 0
211 210 0
198 -210 -211 0
212 131 0
212 -38 0
-131 38 -212 0
-211 -212 -213 0
211 212 -213 0
-211 212 213 0
211 -212 213 0
-214 197 0
-214 -213 0
-197 213 214 0
62 -215 -216 0
-62 215 -216 0
62 215 216 0
-62 -215 216 0
214 216 -217 0
-214 -216 -217 0
214 -216 217 0
-214 216 217 0
218 -18 0
218 111 0
18 -111 -218 0
219 -158 0
219 127 0
158 -127 -219 0
-220 67 0
-220 -219 0
-67 219 220 0
-76 52 -221 0
76 -52 -221 0
-76 -52 221 0
76 52 221 0
-222 -1 0
-222 8 0
1 -8 222 0
-221 -222 -223 0
221 222 -223 0
-221 222 223 0
221 -222 223 0
224 220 0
224 223 0
-220 -223 -224 0
-225 218 0
-225 -224 0
-218 224 225 0
-226 -217 0
-226 -225 0
217 225 226 0
227 -185 0
227 226 0
185 -226 -227 0
-45 18 -228 0
45 -18 -228 0
-45 -18 228 0
45 18 228 0
229 227 0
229 -228 0
-227 228 -229 0
-230 149 0
-230 229 0
-149 -229 230 0
-29 75 30 -53 -54 -228 214 55 11 0
-130 -152 -65 -222 141 0
38 -204 113 -114 -54 0
-100 29 138 -79 0
-140 111 162 100 -186 165 -188 -175 0
225 42 0
-8 182 0
105 17 -175 -198 144 -95 28 0
-225 5 120 -58 188 -131 0
89 -152 113 207 179 -98 0
82 -26 151 -216 -115 -155 81 55 -8 0
-191 56 -204 173 -11 -110 -129 170 127 0
-137 -225 105 -184 203 96 -69 47 0
39 -103 -82 -133 110 -149 0
-11 -225 150 10 208 -114 143 0
-138 -192 -19 34 -143 1 -153 217 0
-152 -119 -203 117 -130 7 196 -125 0
67 23 122 117 -59 181 15 -80 -131 0
-161 -221 93 -8 -216 -86 -147 -40 0
23 61 113 -188 21 -153 30 133 0
209 146 -68 0
-199 -114 66 164 -135 -147 108 159 183 188 0
14 -118 135 -96 91 193 -26 -177 -21 0
126 188 -68 121 -22 144 0
213 202 3 -128 78 -105 0
-22 186 -154 207 0
-162 40 -35 160 121 197 112 -111 -176 92 0
21 -170 100 224 -138 0
-177 95 -58 -179 -155 0
-214 158 44 0
149 108 75 -101 18 77 137 228 -151 0
-166 -182 -230 143 125 -144 -151 0
-230 173 -110 77 34 70 -203 33 -115 0
37 -54 44 174 -79 -217 -17 205 83 0
-191 11 17 0
73 52 -189 15 -166 -110 106 155 0
-34 -191 0
196 211 -160 -218 65 135 -49 0
-135 -145 188 164 80 -170 -66 3 0
14 87 -10 -6 21 77 67 -32 19 0
-102 36 -222 34 -96 -76 133 0
-181 25 0
115 -138 0
-142 -117 64 -148 151 0
-140 193 -31 117 0
228 -135 -173 119 197 -73 -126 67 -122 156 0
-86 192 0
188 -6 -103 -198 0
-70 18 160 175 92 -225 115 -27 2 157 0
-51 223 180 -48 186 0
171 -226 -219 153 -17 29 0
4 204 -53 172 0
67 -121 94 130 174 -142 173 -92 49 -157 0
68 140 -199 -230 -193 -15 79 77 210 0
182 80 -18 0
154 189 4 -9 -162 72 -208 0
58 -16 0
-29 153 -149 0
161 -132 56 0
-199 64 -79 -157 -20 -27 0
-195 189 -74 87 223 144 6 0
111 48 0
126 -29 39 -118 -67 -186 -139 0
187 56 -222 -190 111 198 202 99 -92 0
-109 122 -220 -165 196 98 0
202 -208 -119 118 0
-39 -49 0
-223 32 47 -101 -205 -46 -58 -151 37 0
-170 -22 49 -125 -191 0
-190 -3 0
92 -128 0
-25 -177 -13 193 160 -67 0
137 212 -69 -209 127 -86 -166 119 21 0
137 -72 -163 -183 139 210 -214 0
108 -222 225 -169 -209 -88 0
-215 -18 15 -61 27 130 -89 -160 0
-144 94 192 0
230 0
